NAME          BLANK   
ROWS
 N  OBJROW
 L  R0000000
COLUMNS
    C0000000  OBJROW     -10.          R0000000  526.        
    C0000001  OBJROW     -201.         R0000000  699.        
    C0000002  OBJROW     -840.         R0000000  288.        
    C0000003  OBJROW     -674.         R0000000  579.        
    C0000004  OBJROW     -1000.        R0000000  870.        
    C0000005  OBJROW     -11.          R0000000  436.        
    C0000006  OBJROW     -976.         R0000000  679.        
    C0000007  OBJROW     -489.         R0000000  708.        
    C0000008  OBJROW     -754.         R0000000  461.        
    C0000009  OBJROW     -961.         R0000000  910.        
    C0000010  OBJROW     -786.         R0000000  331.        
    C0000011  OBJROW     -857.         R0000000  375.        
    C0000012  OBJROW     -442.         R0000000  131.        
    C0000013  OBJROW     -951.         R0000000  320.        
    C0000014  OBJROW     -363.         R0000000  179.        
    C0000015  OBJROW     -975.         R0000000  664.        
    C0000016  OBJROW     -924.         R0000000  665.        
    C0000017  OBJROW     -389.         R0000000  625.        
    C0000018  OBJROW     -118.         R0000000  553.        
    C0000019  OBJROW     -77.          R0000000  881.        
    C0000020  OBJROW     -84.          R0000000  658.        
    C0000021  OBJROW     -774.         R0000000  201.        
    C0000022  OBJROW     -604.         R0000000  98.         
    C0000023  OBJROW     -102.         R0000000  503.        
    C0000024  OBJROW     -316.         R0000000  788.        
    C0000025  OBJROW     -543.         R0000000  567.        
    C0000026  OBJROW     -628.         R0000000  868.        
    C0000027  OBJROW     -381.         R0000000  429.        
    C0000028  OBJROW     -910.         R0000000  134.        
    C0000029  OBJROW     -621.         R0000000  707.        
    C0000030  OBJROW     -998.         R0000000  567.        
    C0000031  OBJROW     -955.         R0000000  132.        
    C0000032  OBJROW     -143.         R0000000  191.        
    C0000033  OBJROW     -276.         R0000000  626.        
    C0000034  OBJROW     -253.         R0000000  576.        
    C0000035  OBJROW     -237.         R0000000  250.        
    C0000036  OBJROW     -429.         R0000000  384.        
    C0000037  OBJROW     -53.          R0000000  491.        
    C0000038  OBJROW     -869.         R0000000  480.        
    C0000039  OBJROW     -766.         R0000000  249.        
    C0000040  OBJROW     -227.         R0000000  618.        
    C0000041  OBJROW     -215.         R0000000  145.        
    C0000042  OBJROW     -955.         R0000000  18.         
    C0000043  OBJROW     -119.         R0000000  377.        
    C0000044  OBJROW     -139.         R0000000  856.        
    C0000045  OBJROW     -743.         R0000000  691.        
    C0000046  OBJROW     -12.          R0000000  646.        
    C0000047  OBJROW     -975.         R0000000  124.        
    C0000048  OBJROW     -610.         R0000000  831.        
    C0000049  OBJROW     -776.         R0000000  330.        
RHS
    RHS       R0000000  12207.      
BOUNDS
 BV BOUND     C0000000  1.          
 BV BOUND     C0000001  1.          
 BV BOUND     C0000002  1.          
 BV BOUND     C0000003  1.          
 BV BOUND     C0000004  1.          
 BV BOUND     C0000005  1.          
 BV BOUND     C0000006  1.          
 BV BOUND     C0000007  1.          
 BV BOUND     C0000008  1.          
 BV BOUND     C0000009  1.          
 BV BOUND     C0000010  1.          
 BV BOUND     C0000011  1.          
 BV BOUND     C0000012  1.          
 BV BOUND     C0000013  1.          
 BV BOUND     C0000014  1.          
 BV BOUND     C0000015  1.          
 BV BOUND     C0000016  1.          
 BV BOUND     C0000017  1.          
 BV BOUND     C0000018  1.          
 BV BOUND     C0000019  1.          
 BV BOUND     C0000020  1.          
 BV BOUND     C0000021  1.          
 BV BOUND     C0000022  1.          
 BV BOUND     C0000023  1.          
 BV BOUND     C0000024  1.          
 BV BOUND     C0000025  1.          
 BV BOUND     C0000026  1.          
 BV BOUND     C0000027  1.          
 BV BOUND     C0000028  1.          
 BV BOUND     C0000029  1.          
 BV BOUND     C0000030  1.          
 BV BOUND     C0000031  1.          
 BV BOUND     C0000032  1.          
 BV BOUND     C0000033  1.          
 BV BOUND     C0000034  1.          
 BV BOUND     C0000035  1.          
 BV BOUND     C0000036  1.          
 BV BOUND     C0000037  1.          
 BV BOUND     C0000038  1.          
 BV BOUND     C0000039  1.          
 BV BOUND     C0000040  1.          
 BV BOUND     C0000041  1.          
 BV BOUND     C0000042  1.          
 BV BOUND     C0000043  1.          
 BV BOUND     C0000044  1.          
 BV BOUND     C0000045  1.          
 BV BOUND     C0000046  1.          
 BV BOUND     C0000047  1.          
 BV BOUND     C0000048  1.          
 BV BOUND     C0000049  1.          
ENDATA
